(assert (forall ((pkt_0_3_5_0  Int  )(state_group_0_state_0_4_6_0  Int  )) (let ((_n0 state_group_0_state_0_4_6_0 ))
(let ((_n1 true ))
(let ((_n2 (ite (=  _n0  0)  (ite  _n1  1 0)   _n0  ) ))
(let ((_n3 2 ))
(let ((_n4 (<   _n0   _n3 ) ))
(let ((_n5 false ))
(let ((_n6 (ite  _n4   (ite  _n5  1 0)   _n0  ) ))
(let ((_n7 (+   _n6   (ite  _n4  1 0) ) ))
(let ((_n8 (ite (=  (ite  _n4  1 0)  1)  _n7   _n0  ) ))
(let ((_n9 (=   _n8   _n2 ) ))
(let ((_n11 pkt_0_3_5_0 ))
(let ((_n12 (ite (=  _n0  0)  (ite  _n1  1 0)   _n11  ) ))
(let ((_n13 (ite (=  _n11  0)  _n11   (ite  _n5  1 0)  ) ))
(let ((_n14 (ite (=  _n11  0)  _n13   _n11  ) ))
(let ((_n15 (=   _n0   (ite  _n5  1 0) ) ))
(let ((_n16 (ite (=  _n0  0)  (ite  _n15  1 0)   _n14  ) ))
(let ((_n17 (=   _n16   _n12 ) ))
(implies  (and (and (>= state_group_0_state_0_4_6_0 0) (< state_group_0_state_0_4_6_0 1024 ))  (and (>= pkt_0_3_5_0 0) (< pkt_0_3_5_0 1024 )) )   (and  _n9  _n17 )  ))))))))))))))))))))
(check-sat)
(get-model)
(exit)